c not original file ! May have been modified for weighted vertex coloring problem (edges and vertices stay the same only weights may have been moved to an other file)
p edge 142 1266
e 1 2
e 1 3
e 1 4
e 1 5
e 1 6
e 1 7
e 1 8
e 1 9
e 1 10
e 1 11
e 1 30
e 1 39
e 1 51
e 1 61
e 1 90
e 1 100
e 1 111
e 1 121
e 2 3
e 2 4
e 2 5
e 2 6
e 2 7
e 2 8
e 2 9
e 2 10
e 2 11
e 2 13
e 2 22
e 2 41
e 2 52
e 2 63
e 2 80
e 2 102
e 2 112
e 2 123
e 2 134
e 3 4
e 3 5
e 3 6
e 3 7
e 3 8
e 3 9
e 3 10
e 3 11
e 3 14
e 3 23
e 3 32
e 3 53
e 3 69
e 3 81
e 3 103
e 3 113
e 3 124
e 4 5
e 4 6
e 4 7
e 4 8
e 4 9
e 4 10
e 4 11
e 4 15
e 4 24
e 4 42
e 4 64
e 4 75
e 4 82
e 4 91
e 4 104
e 4 114
e 4 125
e 4 135
e 5 6
e 5 7
e 5 8
e 5 9
e 5 10
e 5 11
e 5 17
e 5 44
e 5 71
e 5 93
e 5 106
e 5 117
e 5 138
e 6 7
e 6 8
e 6 9
e 6 10
e 6 11
e 6 45
e 6 55
e 6 72
e 6 77
e 6 85
e 6 94
e 6 107
e 6 118
e 6 139
e 7 8
e 7 9
e 7 10
e 7 11
e 7 18
e 7 46
e 7 56
e 7 65
e 7 95
e 7 128
e 8 9
e 8 10
e 8 11
e 8 19
e 8 26
e 8 35
e 8 47
e 8 57
e 8 66
e 8 86
e 8 96
e 8 129
e 8 140
e 9 10
e 9 11
e 9 20
e 9 36
e 9 48
e 9 73
e 9 97
e 9 130
e 9 141
e 10 11
e 10 28
e 10 37
e 10 49
e 10 59
e 10 74
e 10 78
e 10 88
e 10 98
e 10 109
e 10 131
e 11 29
e 11 38
e 11 50
e 11 60
e 11 67
e 11 79
e 11 89
e 11 99
e 11 110
e 11 120
e 11 132
e 11 142
e 12 13
e 12 14
e 12 15
e 12 16
e 12 17
e 12 18
e 12 19
e 12 20
e 12 21
e 12 31
e 12 40
e 12 62
e 12 68
e 12 101
e 12 122
e 12 133
e 13 14
e 13 15
e 13 16
e 13 17
e 13 18
e 13 19
e 13 20
e 13 22
e 13 41
e 13 52
e 13 63
e 13 80
e 13 102
e 13 112
e 13 123
e 13 134
e 14 15
e 14 16
e 14 17
e 14 18
e 14 19
e 14 20
e 14 23
e 14 32
e 14 53
e 14 69
e 14 81
e 14 103
e 14 113
e 14 124
e 15 16
e 15 17
e 15 18
e 15 19
e 15 20
e 15 24
e 15 42
e 15 64
e 15 75
e 15 82
e 15 91
e 15 104
e 15 114
e 15 125
e 15 135
e 16 17
e 16 18
e 16 19
e 16 20
e 16 25
e 16 34
e 16 54
e 16 70
e 16 76
e 16 84
e 16 92
e 16 105
e 16 116
e 16 127
e 16 137
e 17 18
e 17 19
e 17 20
e 17 44
e 17 71
e 17 93
e 17 106
e 17 117
e 17 138
e 18 19
e 18 20
e 18 46
e 18 56
e 18 65
e 18 95
e 18 128
e 19 20
e 19 26
e 19 35
e 19 47
e 19 57
e 19 66
e 19 86
e 19 96
e 19 129
e 19 140
e 20 36
e 20 48
e 20 73
e 20 97
e 20 130
e 20 141
e 21 22
e 21 23
e 21 24
e 21 25
e 21 26
e 21 27
e 21 28
e 21 29
e 21 31
e 21 40
e 21 62
e 21 68
e 21 101
e 21 122
e 21 133
e 22 23
e 22 24
e 22 25
e 22 26
e 22 27
e 22 28
e 22 29
e 22 41
e 22 52
e 22 63
e 22 80
e 22 102
e 22 112
e 22 123
e 22 134
e 23 24
e 23 25
e 23 26
e 23 27
e 23 28
e 23 29
e 23 32
e 23 53
e 23 69
e 23 81
e 23 103
e 23 113
e 23 124
e 24 25
e 24 26
e 24 27
e 24 28
e 24 29
e 24 42
e 24 64
e 24 75
e 24 82
e 24 91
e 24 104
e 24 114
e 24 125
e 24 135
e 25 26
e 25 27
e 25 28
e 25 29
e 25 34
e 25 54
e 25 70
e 25 76
e 25 84
e 25 92
e 25 105
e 25 116
e 25 127
e 25 137
e 26 27
e 26 28
e 26 29
e 26 35
e 26 47
e 26 57
e 26 66
e 26 86
e 26 96
e 26 129
e 26 140
e 27 28
e 27 29
e 27 58
e 27 87
e 27 108
e 27 119
e 28 29
e 28 37
e 28 49
e 28 59
e 28 74
e 28 78
e 28 88
e 28 98
e 28 109
e 28 131
e 29 38
e 29 50
e 29 60
e 29 67
e 29 79
e 29 89
e 29 99
e 29 110
e 29 120
e 29 132
e 29 142
e 30 31
e 30 32
e 30 33
e 30 34
e 30 35
e 30 36
e 30 37
e 30 38
e 30 39
e 30 51
e 30 61
e 30 90
e 30 100
e 30 111
e 30 121
e 31 32
e 31 33
e 31 34
e 31 35
e 31 36
e 31 37
e 31 38
e 31 40
e 31 62
e 31 68
e 31 101
e 31 122
e 31 133
e 32 33
e 32 34
e 32 35
e 32 36
e 32 37
e 32 38
e 32 53
e 32 69
e 32 81
e 32 103
e 32 113
e 32 124
e 33 34
e 33 35
e 33 36
e 33 37
e 33 38
e 33 43
e 33 83
e 33 115
e 33 126
e 33 136
e 34 35
e 34 36
e 34 37
e 34 38
e 34 54
e 34 70
e 34 76
e 34 84
e 34 92
e 34 105
e 34 116
e 34 127
e 34 137
e 35 36
e 35 37
e 35 38
e 35 47
e 35 57
e 35 66
e 35 86
e 35 96
e 35 129
e 35 140
e 36 37
e 36 38
e 36 48
e 36 73
e 36 97
e 36 130
e 36 141
e 37 38
e 37 49
e 37 59
e 37 74
e 37 78
e 37 88
e 37 98
e 37 109
e 37 131
e 38 50
e 38 60
e 38 67
e 38 79
e 38 89
e 38 99
e 38 110
e 38 120
e 38 132
e 38 142
e 39 40
e 39 41
e 39 42
e 39 43
e 39 44
e 39 45
e 39 46
e 39 47
e 39 48
e 39 49
e 39 50
e 39 51
e 39 61
e 39 90
e 39 100
e 39 111
e 39 121
e 40 41
e 40 42
e 40 43
e 40 44
e 40 45
e 40 46
e 40 47
e 40 48
e 40 49
e 40 50
e 40 62
e 40 68
e 40 101
e 40 122
e 40 133
e 41 42
e 41 43
e 41 44
e 41 45
e 41 46
e 41 47
e 41 48
e 41 49
e 41 50
e 41 52
e 41 63
e 41 80
e 41 102
e 41 112
e 41 123
e 41 134
e 42 43
e 42 44
e 42 45
e 42 46
e 42 47
e 42 48
e 42 49
e 42 50
e 42 64
e 42 75
e 42 82
e 42 91
e 42 104
e 42 114
e 42 125
e 42 135
e 43 44
e 43 45
e 43 46
e 43 47
e 43 48
e 43 49
e 43 50
e 43 83
e 43 115
e 43 126
e 43 136
e 44 45
e 44 46
e 44 47
e 44 48
e 44 49
e 44 50
e 44 71
e 44 93
e 44 106
e 44 117
e 44 138
e 45 46
e 45 47
e 45 48
e 45 49
e 45 50
e 45 55
e 45 72
e 45 77
e 45 85
e 45 94
e 45 107
e 45 118
e 45 139
e 46 47
e 46 48
e 46 49
e 46 50
e 46 56
e 46 65
e 46 95
e 46 128
e 47 48
e 47 49
e 47 50
e 47 57
e 47 66
e 47 86
e 47 96
e 47 129
e 47 140
e 48 49
e 48 50
e 48 73
e 48 97
e 48 130
e 48 141
e 49 50
e 49 59
e 49 74
e 49 78
e 49 88
e 49 98
e 49 109
e 49 131
e 50 60
e 50 67
e 50 79
e 50 89
e 50 99
e 50 110
e 50 120
e 50 132
e 50 142
e 51 52
e 51 53
e 51 54
e 51 55
e 51 56
e 51 57
e 51 58
e 51 59
e 51 60
e 51 61
e 51 90
e 51 100
e 51 111
e 51 121
e 52 53
e 52 54
e 52 55
e 52 56
e 52 57
e 52 58
e 52 59
e 52 60
e 52 63
e 52 80
e 52 102
e 52 112
e 52 123
e 52 134
e 53 54
e 53 55
e 53 56
e 53 57
e 53 58
e 53 59
e 53 60
e 53 69
e 53 81
e 53 103
e 53 113
e 53 124
e 54 55
e 54 56
e 54 57
e 54 58
e 54 59
e 54 60
e 54 70
e 54 76
e 54 84
e 54 92
e 54 105
e 54 116
e 54 127
e 54 137
e 55 56
e 55 57
e 55 58
e 55 59
e 55 60
e 55 72
e 55 77
e 55 85
e 55 94
e 55 107
e 55 118
e 55 139
e 56 57
e 56 58
e 56 59
e 56 60
e 56 65
e 56 95
e 56 128
e 57 58
e 57 59
e 57 60
e 57 66
e 57 86
e 57 96
e 57 129
e 57 140
e 58 59
e 58 60
e 58 87
e 58 108
e 58 119
e 59 60
e 59 74
e 59 78
e 59 88
e 59 98
e 59 109
e 59 131
e 60 67
e 60 79
e 60 89
e 60 99
e 60 110
e 60 120
e 60 132
e 60 142
e 61 62
e 61 63
e 61 64
e 61 65
e 61 66
e 61 67
e 61 90
e 61 100
e 61 111
e 61 121
e 62 63
e 62 64
e 62 65
e 62 66
e 62 67
e 62 68
e 62 101
e 62 122
e 62 133
e 63 64
e 63 65
e 63 66
e 63 67
e 63 80
e 63 102
e 63 112
e 63 123
e 63 134
e 64 65
e 64 66
e 64 67
e 64 75
e 64 82
e 64 91
e 64 104
e 64 114
e 64 125
e 64 135
e 65 66
e 65 67
e 65 95
e 65 128
e 66 67
e 66 86
e 66 96
e 66 129
e 66 140
e 67 79
e 67 89
e 67 99
e 67 110
e 67 120
e 67 132
e 67 142
e 68 69
e 68 70
e 68 71
e 68 72
e 68 73
e 68 74
e 68 101
e 68 122
e 68 133
e 69 70
e 69 71
e 69 72
e 69 73
e 69 74
e 69 81
e 69 103
e 69 113
e 69 124
e 70 71
e 70 72
e 70 73
e 70 74
e 70 76
e 70 84
e 70 92
e 70 105
e 70 116
e 70 127
e 70 137
e 71 72
e 71 73
e 71 74
e 71 93
e 71 106
e 71 117
e 71 138
e 72 73
e 72 74
e 72 77
e 72 85
e 72 94
e 72 107
e 72 118
e 72 139
e 73 74
e 73 97
e 73 130
e 73 141
e 74 78
e 74 88
e 74 98
e 74 109
e 74 131
e 75 76
e 75 77
e 75 78
e 75 79
e 75 82
e 75 91
e 75 104
e 75 114
e 75 125
e 75 135
e 76 77
e 76 78
e 76 79
e 76 84
e 76 92
e 76 105
e 76 116
e 76 127
e 76 137
e 77 78
e 77 79
e 77 85
e 77 94
e 77 107
e 77 118
e 77 139
e 78 79
e 78 88
e 78 98
e 78 109
e 78 131
e 79 89
e 79 99
e 79 110
e 79 120
e 79 132
e 79 142
e 80 81
e 80 82
e 80 83
e 80 84
e 80 85
e 80 86
e 80 87
e 80 88
e 80 89
e 80 102
e 80 112
e 80 123
e 80 134
e 81 82
e 81 83
e 81 84
e 81 85
e 81 86
e 81 87
e 81 88
e 81 89
e 81 103
e 81 113
e 81 124
e 82 83
e 82 84
e 82 85
e 82 86
e 82 87
e 82 88
e 82 89
e 82 91
e 82 104
e 82 114
e 82 125
e 82 135
e 83 84
e 83 85
e 83 86
e 83 87
e 83 88
e 83 89
e 83 115
e 83 126
e 83 136
e 84 85
e 84 86
e 84 87
e 84 88
e 84 89
e 84 92
e 84 105
e 84 116
e 84 127
e 84 137
e 85 86
e 85 87
e 85 88
e 85 89
e 85 94
e 85 107
e 85 118
e 85 139
e 86 87
e 86 88
e 86 89
e 86 96
e 86 129
e 86 140
e 87 88
e 87 89
e 87 108
e 87 119
e 88 89
e 88 98
e 88 109
e 88 131
e 89 99
e 89 110
e 89 120
e 89 132
e 89 142
e 90 91
e 90 92
e 90 93
e 90 94
e 90 95
e 90 96
e 90 97
e 90 98
e 90 99
e 90 100
e 90 111
e 90 121
e 91 92
e 91 93
e 91 94
e 91 95
e 91 96
e 91 97
e 91 98
e 91 99
e 91 104
e 91 114
e 91 125
e 91 135
e 92 93
e 92 94
e 92 95
e 92 96
e 92 97
e 92 98
e 92 99
e 92 105
e 92 116
e 92 127
e 92 137
e 93 94
e 93 95
e 93 96
e 93 97
e 93 98
e 93 99
e 93 106
e 93 117
e 93 138
e 94 95
e 94 96
e 94 97
e 94 98
e 94 99
e 94 107
e 94 118
e 94 139
e 95 96
e 95 97
e 95 98
e 95 99
e 95 128
e 96 97
e 96 98
e 96 99
e 96 129
e 96 140
e 97 98
e 97 99
e 97 130
e 97 141
e 98 99
e 98 109
e 98 131
e 99 110
e 99 120
e 99 132
e 99 142
e 100 101
e 100 102
e 100 103
e 100 104
e 100 105
e 100 106
e 100 107
e 100 108
e 100 109
e 100 110
e 100 111
e 100 121
e 101 102
e 101 103
e 101 104
e 101 105
e 101 106
e 101 107
e 101 108
e 101 109
e 101 110
e 101 122
e 101 133
e 102 103
e 102 104
e 102 105
e 102 106
e 102 107
e 102 108
e 102 109
e 102 110
e 102 112
e 102 123
e 102 134
e 103 104
e 103 105
e 103 106
e 103 107
e 103 108
e 103 109
e 103 110
e 103 113
e 103 124
e 104 105
e 104 106
e 104 107
e 104 108
e 104 109
e 104 110
e 104 114
e 104 125
e 104 135
e 105 106
e 105 107
e 105 108
e 105 109
e 105 110
e 105 116
e 105 127
e 105 137
e 106 107
e 106 108
e 106 109
e 106 110
e 106 117
e 106 138
e 107 108
e 107 109
e 107 110
e 107 118
e 107 139
e 108 109
e 108 110
e 108 119
e 109 110
e 109 131
e 110 120
e 110 132
e 110 142
e 111 112
e 111 113
e 111 114
e 111 115
e 111 116
e 111 117
e 111 118
e 111 119
e 111 120
e 111 121
e 112 113
e 112 114
e 112 115
e 112 116
e 112 117
e 112 118
e 112 119
e 112 120
e 112 123
e 112 134
e 113 114
e 113 115
e 113 116
e 113 117
e 113 118
e 113 119
e 113 120
e 113 124
e 114 115
e 114 116
e 114 117
e 114 118
e 114 119
e 114 120
e 114 125
e 114 135
e 115 116
e 115 117
e 115 118
e 115 119
e 115 120
e 115 126
e 115 136
e 116 117
e 116 118
e 116 119
e 116 120
e 116 127
e 116 137
e 117 118
e 117 119
e 117 120
e 117 138
e 118 119
e 118 120
e 118 139
e 119 120
e 120 132
e 120 142
e 121 122
e 121 123
e 121 124
e 121 125
e 121 126
e 121 127
e 121 128
e 121 129
e 121 130
e 121 131
e 121 132
e 122 123
e 122 124
e 122 125
e 122 126
e 122 127
e 122 128
e 122 129
e 122 130
e 122 131
e 122 132
e 122 133
e 123 124
e 123 125
e 123 126
e 123 127
e 123 128
e 123 129
e 123 130
e 123 131
e 123 132
e 123 134
e 124 125
e 124 126
e 124 127
e 124 128
e 124 129
e 124 130
e 124 131
e 124 132
e 125 126
e 125 127
e 125 128
e 125 129
e 125 130
e 125 131
e 125 132
e 125 135
e 126 127
e 126 128
e 126 129
e 126 130
e 126 131
e 126 132
e 126 136
e 127 128
e 127 129
e 127 130
e 127 131
e 127 132
e 127 137
e 128 129
e 128 130
e 128 131
e 128 132
e 129 130
e 129 131
e 129 132
e 129 140
e 130 131
e 130 132
e 130 141
e 131 132
e 132 142
e 133 134
e 133 135
e 133 136
e 133 137
e 133 138
e 133 139
e 133 140
e 133 141
e 133 142
e 134 135
e 134 136
e 134 137
e 134 138
e 134 139
e 134 140
e 134 141
e 134 142
e 135 136
e 135 137
e 135 138
e 135 139
e 135 140
e 135 141
e 135 142
e 136 137
e 136 138
e 136 139
e 136 140
e 136 141
e 136 142
e 137 138
e 137 139
e 137 140
e 137 141
e 137 142
e 138 139
e 138 140
e 138 141
e 138 142
e 139 140
e 139 141
e 139 142
e 140 141
e 140 142
e 141 142
